NAME: concorde5
TYPE: TSP
RUN_TIME: 0.0
DISTANCE: 139
COMMENT: Solution by max williams
DIMENSION: 5
EDGE_WEIGHT_TYPE: EUC_2D
NODE_COORD_SECTION
1 31.045752 75.527430
2 42.565357 77.004220
5 53.104576 90.717300
3 64.705880 76.160340
4 50.735294 33.333332
